enter example

minimize
 x0 + x1 + x2 + x3 + x4 + x5 + x6 + x7 + x8 + x9 + x10 + x11 + x12 + x13 + x14 + x15 + x16 + x17 + x18 + x19 + x20 + x21 + x22 + x23 + x24 + x25 + x26 + x27 + x28 + x29 + x30 + x31 + x32 + x33 + x34 + x35 + x36 + x37 + x38 + x39 + x40 + x41 + x42 + x43 + x44 + x45 + x46 + x47 + x48 + x49 + x50 + x51 + x52 + x53 + x54 + x55 + x56 + x57 + x58 + x59 + x60 + x61 + x62 + x63 + x64 + x65 + x66 + x67 + x68 + x69 + x70 + x71 + x72 + x73 + x74 + x75 + x76 + x77 + x78 + x79 + x80 + x81 + x82 + x83 + x84 + x85 + x86 + x87 + x88 + x89 + x90 + x91 + x92 + x93 + x94 + x95 + x96 + x97 + x98 + x99 + x100 + x101 + x102 + x103 + x104 + x105 + x106 + x107 + x108 + x109 + x110 + x111 + x112 + x113 + x114 + x115 + x116 + x117 + x118 + x119 + x120 + x121 + x122 + x123 + x124 + x125 + x126 + x127 + x128 + x129 + x130 + x131 + x132 + x133 + x134 + x135 + x136 + x137 + x138 + x139 + x140 + x141 + x142 + x143 + x144 + x145 + x146 + x147 + x148 + x149 + x150 + x151 + x152 + x153 + x154 + x155 + x156 + x157 + x158 + x159 + x160 + x161 + x162 + x163 + x164 + x165 + x166 + x167 + x168 + x169 + x170 + x171 + x172 + x173 + x174 + x175 + x176 + x177 + x178 + x179 + x180 + x181 + x182 + x183 + x184 + x185 + x186 + x187 + x188 + x189 + x190 + x191 + x192 + x193 + x194 + x195 + x196 + x197 + x198 + x199 + x200 + x201 + x202 + x203 + x204 + x205 + x206 + x207 + x208 + x209 + x210 + x211 + x212 + x213 + x214 + x215 + x216 + x217 + x218 + x219 + x220 +
 z0 + z1 + z2 + z3 + z4 + z5 + z6 + z7 + z8 + z9 + z10 + z11 + z12 + z13 + z14 + z15 + z16 + z17 + z18 + z19 + z20 + z21 + z22 + z23 + z24 + z25 + z26 + z27 + z28 + z29 + z30 + z31 + z32 + z33 + z34 + z35 + z36 + z37 + z38 + z39 + z40 + z41 + z42 + z43 + z44 + z45 + z46 + z47 + z48 + z49 + z50 + z51 + z52 + z53 + z54 + z55 + z56 + z57 + z58 + z59 + z60 + z61 + z62 + z63 + z64 + z65 + z66 + z67 + z68 + z69 + z70 + z71 + z72 + z73 + z74 + z75 + z76 + z77 + z78 + z79 + z80 + z81 + z82 + z83 + z84 + z85 + z86 + z87 + z88 + z89 + z90 + z91 + z92 + z93 + z94 + z95 + z96 + z97 + z98 + z99 + z100 + z101 + z102 + z103 + z104 + z105 + z106 + z107 + z108 + z109 + z110 + z111 + z112 + z113 + z114 + z115 + z116 + z117 + z118 + z119 + z120 + z121 + z122 + z123 + z124 + z125 + z126 + z127 + z128 + z129 + z130 + z131 + z132 + z133 + z134 + z135 + z136 + z137 + z138 + z139 + z140 + z141 + z142 + z143 + z144 + z145 + z146 + z147 + z148 + z149 + z150 + z151 + z152 + z153 + z154 + z155 + z156 + z157 + z158 + z159 + z160 + z161 + z162 + z163 + z164 + z165 + z166 + z167 + z168 + z169 + z170 + z171 + z172 + z173 + z174 + z175 + z176 + z177 + z178 + z179 + z180 + z181 + z182 + z183 + z184 + z185 + z186 + z187 + z188 + z189 + z190 + z191 + z192 + z193 + z194 + z195 + z196 + z197 + z198 + z199 + z200 + z201 + z202 + z203 + z204 + z205 + z206 + z207 + z208 + z209 + z210 + z211 + z212 + z213 + z214 + z215 + z216 + z217 + z218 + z219 + z220 +
 y0 + y1 + y2 + y3 + y4 + y5 + y6 + y7 + y8 + y9 + y10 + y11 + y12 + y13 + y14 + y15 + y16 + y17 + y18 + y19 + y20 + y21 + y22 + y23 + y24 + y25 + y26 + y27 + y28 + y29 + y30 + y31 + y32 + y33 + y34 + y35 + y36 + y37 + y38 + y39 + y40 + y41 + y42 + y43 + y44 + y45 + y46 + y47 + y48 + y49 + y50 + y51 + y52 + y53 + y54 + y55 + y56 + y57 + y58 + y59 + y60 + y61 + y62 + y63 + y64 + y65 + y66 + y67 + y68 + y69 + y70 + y71 + y72 + y73 + y74 + y75 + y76 + y77 + y78 + y79 + y80 + y81 + y82 + y83 + y84 + y85 + y86 + y87 + y88 + y89 + y90 + y91 + y92 + y93 + y94 + y95 + y96 + y97 + y98 + y99 + y100 + y101 + y102 + y103 + y104 + y105 + y106 + y107 + y108 + y109 + y110 + y111 + y112 + y113 + y114 + y115 + y116 + y117 + y118 + y119 + y120 + y121 + y122 + y123 + y124 + y125 + y126 + y127 + y128 + y129 + y130 + y131 + y132 + y133 + y134 + y135 + y136 + y137 + y138 + y139 + y140 + y141 + y142 + y143 + y144 + y145 + y146 + y147 + y148 + y149 + y150 + y151 + y152 + y153 + y154 + y155 + y156 + y157 + y158 + y159 + y160 + y161 + y162 + y163 + y164 + y165 + y166 + y167 + y168 + y169 + y170 + y171 + y172 + y173 + y174 + y175 + y176 + y177 + y178 + y179 + y180 + y181 + y182 + y183 + y184 + y185 + y186 + y187 + y188 + y189 + y190 + y191 + y192 + y193 + y194 + y195 + y196 + y197 + y198 + y199 + y200 + y201 + y202 + y203 + y204 + y205 + y206 + y207 + y208 + y209 + y210 + y211 + y212 + y213 + y214 + y215 + y216 + y217 + y218 + y219 + y220

subject to 
x0 + y0 + x11 + y11 + x121 + y121 -2 w0 = 0
x1 + y1 + x12 + y12 + x121 + y121 + x122 + y122 -2 w1 = 0
x2 + y2 + x13 + y13 + x122 + y122 + x123 + y123 -2 w2 = 0
x3 + y3 + x14 + y14 + x123 + y123 + x124 + y124 -2 w3 = 0
x4 + y4 + x15 + y15 + x124 + y124 + x125 + y125 -2 w4 = 1
x5 + y5 + x16 + y16 + x125 + y125 + x126 + y126 -2 w5 = 1
x6 + y6 + x17 + y17 + x126 + y126 + x127 + y127 -2 w6 = 0
x7 + y7 + x18 + y18 + x127 + y127 + x128 + y128 -2 w7 = 0
x8 + y8 + x19 + y19 + x128 + y128 + x129 + y129 -2 w8 = 0
x9 + y9 + x20 + y20 + x129 + y129 + x130 + y130 -2 w9 = 0
x10 + y10 + x21 + y21 + x130 + y130 -2 w10 = 0
x11 + y11 + x22 + y22 + x131 + y131 -2 w11 = 0
x12 + y12 + x23 + y23 + x131 + y131 + x132 + y132 -2 w12 = 1
x13 + y13 + x24 + y24 + x132 + y132 + x133 + y133 -2 w13 = 1
x14 + y14 + x25 + y25 + x133 + y133 + x134 + y134 -2 w14 = 0
x15 + y15 + x26 + y26 + x134 + y134 + x135 + y135 -2 w15 = 0
x16 + y16 + x27 + y27 + x135 + y135 + x136 + y136 -2 w16 = 0
x17 + y17 + x28 + y28 + x136 + y136 + x137 + y137 -2 w17 = 0
x18 + y18 + x29 + y29 + x137 + y137 + x138 + y138 -2 w18 = 0
x19 + y19 + x30 + y30 + x138 + y138 + x139 + y139 -2 w19 = 0
x20 + y20 + x31 + y31 + x139 + y139 + x140 + y140 -2 w20 = 1
x21 + y21 + x32 + y32 + x140 + y140 -2 w21 = 0
x22 + y22 + x33 + y33 + x141 + y141 -2 w22 = 0
x23 + y23 + x34 + y34 + x141 + y141 + x142 + y142 -2 w23 = 0
x24 + y24 + x35 + y35 + x142 + y142 + x143 + y143 -2 w24 = 1
x25 + y25 + x36 + y36 + x143 + y143 + x144 + y144 -2 w25 = 0
x26 + y26 + x37 + y37 + x144 + y144 + x145 + y145 -2 w26 = 0
x27 + y27 + x38 + y38 + x145 + y145 + x146 + y146 -2 w27 = 0
x28 + y28 + x39 + y39 + x146 + y146 + x147 + y147 -2 w28 = 1
x29 + y29 + x40 + y40 + x147 + y147 + x148 + y148 -2 w29 = 1
x30 + y30 + x41 + y41 + x148 + y148 + x149 + y149 -2 w30 = 0
x31 + y31 + x42 + y42 + x149 + y149 + x150 + y150 -2 w31 = 0
x32 + y32 + x43 + y43 + x150 + y150 -2 w32 = 0
x33 + y33 + x44 + y44 + x151 + y151 -2 w33 = 0
x34 + y34 + x45 + y45 + x151 + y151 + x152 + y152 -2 w34 = 0
x35 + y35 + x46 + y46 + x152 + y152 + x153 + y153 -2 w35 = 0
x36 + y36 + x47 + y47 + x153 + y153 + x154 + y154 -2 w36 = 0
x37 + y37 + x48 + y48 + x154 + y154 + x155 + y155 -2 w37 = 0
x38 + y38 + x49 + y49 + x155 + y155 + x156 + y156 -2 w38 = 0
x39 + y39 + x50 + y50 + x156 + y156 + x157 + y157 -2 w39 = 0
x40 + y40 + x51 + y51 + x157 + y157 + x158 + y158 -2 w40 = 1
x41 + y41 + x52 + y52 + x158 + y158 + x159 + y159 -2 w41 = 0
x42 + y42 + x53 + y53 + x159 + y159 + x160 + y160 -2 w42 = 0
x43 + y43 + x54 + y54 + x160 + y160 -2 w43 = 0
x44 + y44 + x55 + y55 + x161 + y161 -2 w44 = 0
x45 + y45 + x56 + y56 + x161 + y161 + x162 + y162 -2 w45 = 1
x46 + y46 + x57 + y57 + x162 + y162 + x163 + y163 -2 w46 = 1
x47 + y47 + x58 + y58 + x163 + y163 + x164 + y164 -2 w47 = 1
x48 + y48 + x59 + y59 + x164 + y164 + x165 + y165 -2 w48 = 0
x49 + y49 + x60 + y60 + x165 + y165 + x166 + y166 -2 w49 = 0
x50 + y50 + x61 + y61 + x166 + y166 + x167 + y167 -2 w50 = 0
x51 + y51 + x62 + y62 + x167 + y167 + x168 + y168 -2 w51 = 1
x52 + y52 + x63 + y63 + x168 + y168 + x169 + y169 -2 w52 = 1
x53 + y53 + x64 + y64 + x169 + y169 + x170 + y170 -2 w53 = 1
x54 + y54 + x65 + y65 + x170 + y170 -2 w54 = 0
x55 + y55 + x66 + y66 + x171 + y171 -2 w55 = 1
x56 + y56 + x67 + y67 + x171 + y171 + x172 + y172 -2 w56 = 0
x57 + y57 + x68 + y68 + x172 + y172 + x173 + y173 -2 w57 = 0
x58 + y58 + x69 + y69 + x173 + y173 + x174 + y174 -2 w58 = 1
x59 + y59 + x70 + y70 + x174 + y174 + x175 + y175 -2 w59 = 0
x60 + y60 + x71 + y71 + x175 + y175 + x176 + y176 -2 w60 = 0
x61 + y61 + x72 + y72 + x176 + y176 + x177 + y177 -2 w61 = 0
x62 + y62 + x73 + y73 + x177 + y177 + x178 + y178 -2 w62 = 1
x63 + y63 + x74 + y74 + x178 + y178 + x179 + y179 -2 w63 = 1
x64 + y64 + x75 + y75 + x179 + y179 + x180 + y180 -2 w64 = 1
x65 + y65 + x76 + y76 + x180 + y180 -2 w65 = 0
x66 + y66 + x77 + y77 + x181 + y181 -2 w66 = 1
x67 + y67 + x78 + y78 + x181 + y181 + x182 + y182 -2 w67 = 1
x68 + y68 + x79 + y79 + x182 + y182 + x183 + y183 -2 w68 = 0
x69 + y69 + x80 + y80 + x183 + y183 + x184 + y184 -2 w69 = 0
x70 + y70 + x81 + y81 + x184 + y184 + x185 + y185 -2 w70 = 0
x71 + y71 + x82 + y82 + x185 + y185 + x186 + y186 -2 w71 = 0
x72 + y72 + x83 + y83 + x186 + y186 + x187 + y187 -2 w72 = 0
x73 + y73 + x84 + y84 + x187 + y187 + x188 + y188 -2 w73 = 1
x74 + y74 + x85 + y85 + x188 + y188 + x189 + y189 -2 w74 = 0
x75 + y75 + x86 + y86 + x189 + y189 + x190 + y190 -2 w75 = 1
x76 + y76 + x87 + y87 + x190 + y190 -2 w76 = 0
x77 + y77 + x88 + y88 + x191 + y191 -2 w77 = 0
x78 + y78 + x89 + y89 + x191 + y191 + x192 + y192 -2 w78 = 1
x79 + y79 + x90 + y90 + x192 + y192 + x193 + y193 -2 w79 = 1
x80 + y80 + x91 + y91 + x193 + y193 + x194 + y194 -2 w80 = 1
x81 + y81 + x92 + y92 + x194 + y194 + x195 + y195 -2 w81 = 1
x82 + y82 + x93 + y93 + x195 + y195 + x196 + y196 -2 w82 = 0
x83 + y83 + x94 + y94 + x196 + y196 + x197 + y197 -2 w83 = 1
x84 + y84 + x95 + y95 + x197 + y197 + x198 + y198 -2 w84 = 1
x85 + y85 + x96 + y96 + x198 + y198 + x199 + y199 -2 w85 = 0
x86 + y86 + x97 + y97 + x199 + y199 + x200 + y200 -2 w86 = 1
x87 + y87 + x98 + y98 + x200 + y200 -2 w87 = 0
x88 + y88 + x99 + y99 + x201 + y201 -2 w88 = 0
x89 + y89 + x100 + y100 + x201 + y201 + x202 + y202 -2 w89 = 0
x90 + y90 + x101 + y101 + x202 + y202 + x203 + y203 -2 w90 = 0
x91 + y91 + x102 + y102 + x203 + y203 + x204 + y204 -2 w91 = 1
x92 + y92 + x103 + y103 + x204 + y204 + x205 + y205 -2 w92 = 0
x93 + y93 + x104 + y104 + x205 + y205 + x206 + y206 -2 w93 = 0
x94 + y94 + x105 + y105 + x206 + y206 + x207 + y207 -2 w94 = 1
x95 + y95 + x106 + y106 + x207 + y207 + x208 + y208 -2 w95 = 1
x96 + y96 + x107 + y107 + x208 + y208 + x209 + y209 -2 w96 = 1
x97 + y97 + x108 + y108 + x209 + y209 + x210 + y210 -2 w97 = 0
x98 + y98 + x109 + y109 + x210 + y210 -2 w98 = 0
x99 + y99 + x110 + y110 + x211 + y211 -2 w99 = 0
x100 + y100 + x111 + y111 + x211 + y211 + x212 + y212 -2 w100 = 1
x101 + y101 + x112 + y112 + x212 + y212 + x213 + y213 -2 w101 = 0
x102 + y102 + x113 + y113 + x213 + y213 + x214 + y214 -2 w102 = 0
x103 + y103 + x114 + y114 + x214 + y214 + x215 + y215 -2 w103 = 0
x104 + y104 + x115 + y115 + x215 + y215 + x216 + y216 -2 w104 = 0
x105 + y105 + x116 + y116 + x216 + y216 + x217 + y217 -2 w105 = 0
x106 + y106 + x117 + y117 + x217 + y217 + x218 + y218 -2 w106 = 1
x107 + y107 + x118 + y118 + x218 + y218 + x219 + y219 -2 w107 = 0
x108 + y108 + x119 + y119 + x219 + y219 + x220 + y220 -2 w108 = 0
x109 + y109 + x120 + y120 + x220 + y220 -2 w109 = 0
z0 + y0 + z1 + y1 + z121 + y121 -2 w110 = 0
z1 + y1 + z2 + y2 + z122 + y122 -2 w111 = 0
z2 + y2 + z3 + y3 + z123 + y123 -2 w112 = 0
z3 + y3 + z4 + y4 + z124 + y124 -2 w113 = 0
z4 + y4 + z5 + y5 + z125 + y125 -2 w114 = 1
z5 + y5 + z6 + y6 + z126 + y126 -2 w115 = 0
z6 + y6 + z7 + y7 + z127 + y127 -2 w116 = 0
z7 + y7 + z8 + y8 + z128 + y128 -2 w117 = 0
z8 + y8 + z9 + y9 + z129 + y129 -2 w118 = 0
z9 + y9 + z10 + y10 + z130 + y130 -2 w119 = 0
z11 + y11 + z12 + y12 + z121 + y121 + z131 + y131 -2 w120 = 0
z12 + y12 + z13 + y13 + z122 + y122 + z132 + y132 -2 w121 = 1
z13 + y13 + z14 + y14 + z123 + y123 + z133 + y133 -2 w122 = 0
z14 + y14 + z15 + y15 + z124 + y124 + z134 + y134 -2 w123 = 0
z15 + y15 + z16 + y16 + z125 + y125 + z135 + y135 -2 w124 = 1
z16 + y16 + z17 + y17 + z126 + y126 + z136 + y136 -2 w125 = 0
z17 + y17 + z18 + y18 + z127 + y127 + z137 + y137 -2 w126 = 0
z18 + y18 + z19 + y19 + z128 + y128 + z138 + y138 -2 w127 = 0
z19 + y19 + z20 + y20 + z129 + y129 + z139 + y139 -2 w128 = 0
z20 + y20 + z21 + y21 + z130 + y130 + z140 + y140 -2 w129 = 0
z22 + y22 + z23 + y23 + z131 + y131 + z141 + y141 -2 w130 = 1
z23 + y23 + z24 + y24 + z132 + y132 + z142 + y142 -2 w131 = 1
z24 + y24 + z25 + y25 + z133 + y133 + z143 + y143 -2 w132 = 1
z25 + y25 + z26 + y26 + z134 + y134 + z144 + y144 -2 w133 = 0
z26 + y26 + z27 + y27 + z135 + y135 + z145 + y145 -2 w134 = 0
z27 + y27 + z28 + y28 + z136 + y136 + z146 + y146 -2 w135 = 0
z28 + y28 + z29 + y29 + z137 + y137 + z147 + y147 -2 w136 = 1
z29 + y29 + z30 + y30 + z138 + y138 + z148 + y148 -2 w137 = 0
z30 + y30 + z31 + y31 + z139 + y139 + z149 + y149 -2 w138 = 0
z31 + y31 + z32 + y32 + z140 + y140 + z150 + y150 -2 w139 = 1
z33 + y33 + z34 + y34 + z141 + y141 + z151 + y151 -2 w140 = 0
z34 + y34 + z35 + y35 + z142 + y142 + z152 + y152 -2 w141 = 0
z35 + y35 + z36 + y36 + z143 + y143 + z153 + y153 -2 w142 = 0
z36 + y36 + z37 + y37 + z144 + y144 + z154 + y154 -2 w143 = 0
z37 + y37 + z38 + y38 + z145 + y145 + z155 + y155 -2 w144 = 1
z38 + y38 + z39 + y39 + z146 + y146 + z156 + y156 -2 w145 = 1
z39 + y39 + z40 + y40 + z147 + y147 + z157 + y157 -2 w146 = 0
z40 + y40 + z41 + y41 + z148 + y148 + z158 + y158 -2 w147 = 1
z41 + y41 + z42 + y42 + z149 + y149 + z159 + y159 -2 w148 = 1
z42 + y42 + z43 + y43 + z150 + y150 + z160 + y160 -2 w149 = 0
z44 + y44 + z45 + y45 + z151 + y151 + z161 + y161 -2 w150 = 1
z45 + y45 + z46 + y46 + z152 + y152 + z162 + y162 -2 w151 = 1
z46 + y46 + z47 + y47 + z153 + y153 + z163 + y163 -2 w152 = 1
z47 + y47 + z48 + y48 + z154 + y154 + z164 + y164 -2 w153 = 1
z48 + y48 + z49 + y49 + z155 + y155 + z165 + y165 -2 w154 = 0
z49 + y49 + z50 + y50 + z156 + y156 + z166 + y166 -2 w155 = 0
z50 + y50 + z51 + y51 + z157 + y157 + z167 + y167 -2 w156 = 0
z51 + y51 + z52 + y52 + z158 + y158 + z168 + y168 -2 w157 = 1
z52 + y52 + z53 + y53 + z159 + y159 + z169 + y169 -2 w158 = 1
z53 + y53 + z54 + y54 + z160 + y160 + z170 + y170 -2 w159 = 1
z55 + y55 + z56 + y56 + z161 + y161 + z171 + y171 -2 w160 = 0
z56 + y56 + z57 + y57 + z162 + y162 + z172 + y172 -2 w161 = 1
z57 + y57 + z58 + y58 + z163 + y163 + z173 + y173 -2 w162 = 1
z58 + y58 + z59 + y59 + z164 + y164 + z174 + y174 -2 w163 = 1
z59 + y59 + z60 + y60 + z165 + y165 + z175 + y175 -2 w164 = 0
z60 + y60 + z61 + y61 + z166 + y166 + z176 + y176 -2 w165 = 0
z61 + y61 + z62 + y62 + z167 + y167 + z177 + y177 -2 w166 = 1
z62 + y62 + z63 + y63 + z168 + y168 + z178 + y178 -2 w167 = 0
z63 + y63 + z64 + y64 + z169 + y169 + z179 + y179 -2 w168 = 0
z64 + y64 + z65 + y65 + z170 + y170 + z180 + y180 -2 w169 = 0
z66 + y66 + z67 + y67 + z171 + y171 + z181 + y181 -2 w170 = 0
z67 + y67 + z68 + y68 + z172 + y172 + z182 + y182 -2 w171 = 1
z68 + y68 + z69 + y69 + z173 + y173 + z183 + y183 -2 w172 = 0
z69 + y69 + z70 + y70 + z174 + y174 + z184 + y184 -2 w173 = 1
z70 + y70 + z71 + y71 + z175 + y175 + z185 + y185 -2 w174 = 0
z71 + y71 + z72 + y72 + z176 + y176 + z186 + y186 -2 w175 = 0
z72 + y72 + z73 + y73 + z177 + y177 + z187 + y187 -2 w176 = 0
z73 + y73 + z74 + y74 + z178 + y178 + z188 + y188 -2 w177 = 0
z74 + y74 + z75 + y75 + z179 + y179 + z189 + y189 -2 w178 = 1
z75 + y75 + z76 + y76 + z180 + y180 + z190 + y190 -2 w179 = 0
z77 + y77 + z78 + y78 + z181 + y181 + z191 + y191 -2 w180 = 0
z78 + y78 + z79 + y79 + z182 + y182 + z192 + y192 -2 w181 = 0
z79 + y79 + z80 + y80 + z183 + y183 + z193 + y193 -2 w182 = 1
z80 + y80 + z81 + y81 + z184 + y184 + z194 + y194 -2 w183 = 1
z81 + y81 + z82 + y82 + z185 + y185 + z195 + y195 -2 w184 = 1
z82 + y82 + z83 + y83 + z186 + y186 + z196 + y196 -2 w185 = 1
z83 + y83 + z84 + y84 + z187 + y187 + z197 + y197 -2 w186 = 1
z84 + y84 + z85 + y85 + z188 + y188 + z198 + y198 -2 w187 = 1
z85 + y85 + z86 + y86 + z189 + y189 + z199 + y199 -2 w188 = 0
z86 + y86 + z87 + y87 + z190 + y190 + z200 + y200 -2 w189 = 1
z88 + y88 + z89 + y89 + z191 + y191 + z201 + y201 -2 w190 = 0
z89 + y89 + z90 + y90 + z192 + y192 + z202 + y202 -2 w191 = 0
z90 + y90 + z91 + y91 + z193 + y193 + z203 + y203 -2 w192 = 0
z91 + y91 + z92 + y92 + z194 + y194 + z204 + y204 -2 w193 = 1
z92 + y92 + z93 + y93 + z195 + y195 + z205 + y205 -2 w194 = 0
z93 + y93 + z94 + y94 + z196 + y196 + z206 + y206 -2 w195 = 1
z94 + y94 + z95 + y95 + z197 + y197 + z207 + y207 -2 w196 = 1
z95 + y95 + z96 + y96 + z198 + y198 + z208 + y208 -2 w197 = 0
z96 + y96 + z97 + y97 + z199 + y199 + z209 + y209 -2 w198 = 0
z97 + y97 + z98 + y98 + z200 + y200 + z210 + y210 -2 w199 = 1
z99 + y99 + z100 + y100 + z201 + y201 + z211 + y211 -2 w200 = 1
z100 + y100 + z101 + y101 + z202 + y202 + z212 + y212 -2 w201 = 1
z101 + y101 + z102 + y102 + z203 + y203 + z213 + y213 -2 w202 = 1
z102 + y102 + z103 + y103 + z204 + y204 + z214 + y214 -2 w203 = 0
z103 + y103 + z104 + y104 + z205 + y205 + z215 + y215 -2 w204 = 0
z104 + y104 + z105 + y105 + z206 + y206 + z216 + y216 -2 w205 = 0
z105 + y105 + z106 + y106 + z207 + y207 + z217 + y217 -2 w206 = 0
z106 + y106 + z107 + y107 + z208 + y208 + z218 + y218 -2 w207 = 0
z107 + y107 + z108 + y108 + z209 + y209 + z219 + y219 -2 w208 = 0
z108 + y108 + z109 + y109 + z210 + y210 + z220 + y220 -2 w209 = 0
z110 + y110 + z111 + y111 + z211 + y211 -2 w210 = 0
z111 + y111 + z112 + y112 + z212 + y212 -2 w211 = 0
z112 + y112 + z113 + y113 + z213 + y213 -2 w212 = 1
z113 + y113 + z114 + y114 + z214 + y214 -2 w213 = 0
z114 + y114 + z115 + y115 + z215 + y215 -2 w214 = 0
z115 + y115 + z116 + y116 + z216 + y216 -2 w215 = 0
z116 + y116 + z117 + y117 + z217 + y217 -2 w216 = 0
z117 + y117 + z118 + y118 + z218 + y218 -2 w217 = 0
z118 + y118 + z119 + y119 + z219 + y219 -2 w218 = 0
z119 + y119 + z120 + y120 + z220 + y220 -2 w219 = 0


bound

general
w0
w1
w2
w3
w4
w5
w6
w7
w8
w9
w10
w11
w12
w13
w14
w15
w16
w17
w18
w19
w20
w21
w22
w23
w24
w25
w26
w27
w28
w29
w30
w31
w32
w33
w34
w35
w36
w37
w38
w39
w40
w41
w42
w43
w44
w45
w46
w47
w48
w49
w50
w51
w52
w53
w54
w55
w56
w57
w58
w59
w60
w61
w62
w63
w64
w65
w66
w67
w68
w69
w70
w71
w72
w73
w74
w75
w76
w77
w78
w79
w80
w81
w82
w83
w84
w85
w86
w87
w88
w89
w90
w91
w92
w93
w94
w95
w96
w97
w98
w99
w100
w101
w102
w103
w104
w105
w106
w107
w108
w109
w110
w111
w112
w113
w114
w115
w116
w117
w118
w119
w120
w121
w122
w123
w124
w125
w126
w127
w128
w129
w130
w131
w132
w133
w134
w135
w136
w137
w138
w139
w140
w141
w142
w143
w144
w145
w146
w147
w148
w149
w150
w151
w152
w153
w154
w155
w156
w157
w158
w159
w160
w161
w162
w163
w164
w165
w166
w167
w168
w169
w170
w171
w172
w173
w174
w175
w176
w177
w178
w179
w180
w181
w182
w183
w184
w185
w186
w187
w188
w189
w190
w191
w192
w193
w194
w195
w196
w197
w198
w199
w200
w201
w202
w203
w204
w205
w206
w207
w208
w209
w210
w211
w212
w213
w214
w215
w216
w217
w218
w219


binary

x0
x1
x2
x3
x4
x5
x6
x7
x8
x9
x10
x11
x12
x13
x14
x15
x16
x17
x18
x19
x20
x21
x22
x23
x24
x25
x26
x27
x28
x29
x30
x31
x32
x33
x34
x35
x36
x37
x38
x39
x40
x41
x42
x43
x44
x45
x46
x47
x48
x49
x50
x51
x52
x53
x54
x55
x56
x57
x58
x59
x60
x61
x62
x63
x64
x65
x66
x67
x68
x69
x70
x71
x72
x73
x74
x75
x76
x77
x78
x79
x80
x81
x82
x83
x84
x85
x86
x87
x88
x89
x90
x91
x92
x93
x94
x95
x96
x97
x98
x99
x100
x101
x102
x103
x104
x105
x106
x107
x108
x109
x110
x111
x112
x113
x114
x115
x116
x117
x118
x119
x120
x121
x122
x123
x124
x125
x126
x127
x128
x129
x130
x131
x132
x133
x134
x135
x136
x137
x138
x139
x140
x141
x142
x143
x144
x145
x146
x147
x148
x149
x150
x151
x152
x153
x154
x155
x156
x157
x158
x159
x160
x161
x162
x163
x164
x165
x166
x167
x168
x169
x170
x171
x172
x173
x174
x175
x176
x177
x178
x179
x180
x181
x182
x183
x184
x185
x186
x187
x188
x189
x190
x191
x192
x193
x194
x195
x196
x197
x198
x199
x200
x201
x202
x203
x204
x205
x206
x207
x208
x209
x210
x211
x212
x213
x214
x215
x216
x217
x218
x219
x220
y0
y1
y2
y3
y4
y5
y6
y7
y8
y9
y10
y11
y12
y13
y14
y15
y16
y17
y18
y19
y20
y21
y22
y23
y24
y25
y26
y27
y28
y29
y30
y31
y32
y33
y34
y35
y36
y37
y38
y39
y40
y41
y42
y43
y44
y45
y46
y47
y48
y49
y50
y51
y52
y53
y54
y55
y56
y57
y58
y59
y60
y61
y62
y63
y64
y65
y66
y67
y68
y69
y70
y71
y72
y73
y74
y75
y76
y77
y78
y79
y80
y81
y82
y83
y84
y85
y86
y87
y88
y89
y90
y91
y92
y93
y94
y95
y96
y97
y98
y99
y100
y101
y102
y103
y104
y105
y106
y107
y108
y109
y110
y111
y112
y113
y114
y115
y116
y117
y118
y119
y120
y121
y122
y123
y124
y125
y126
y127
y128
y129
y130
y131
y132
y133
y134
y135
y136
y137
y138
y139
y140
y141
y142
y143
y144
y145
y146
y147
y148
y149
y150
y151
y152
y153
y154
y155
y156
y157
y158
y159
y160
y161
y162
y163
y164
y165
y166
y167
y168
y169
y170
y171
y172
y173
y174
y175
y176
y177
y178
y179
y180
y181
y182
y183
y184
y185
y186
y187
y188
y189
y190
y191
y192
y193
y194
y195
y196
y197
y198
y199
y200
y201
y202
y203
y204
y205
y206
y207
y208
y209
y210
y211
y212
y213
y214
y215
y216
y217
y218
y219
y220
z0
z1
z2
z3
z4
z5
z6
z7
z8
z9
z10
z11
z12
z13
z14
z15
z16
z17
z18
z19
z20
z21
z22
z23
z24
z25
z26
z27
z28
z29
z30
z31
z32
z33
z34
z35
z36
z37
z38
z39
z40
z41
z42
z43
z44
z45
z46
z47
z48
z49
z50
z51
z52
z53
z54
z55
z56
z57
z58
z59
z60
z61
z62
z63
z64
z65
z66
z67
z68
z69
z70
z71
z72
z73
z74
z75
z76
z77
z78
z79
z80
z81
z82
z83
z84
z85
z86
z87
z88
z89
z90
z91
z92
z93
z94
z95
z96
z97
z98
z99
z100
z101
z102
z103
z104
z105
z106
z107
z108
z109
z110
z111
z112
z113
z114
z115
z116
z117
z118
z119
z120
z121
z122
z123
z124
z125
z126
z127
z128
z129
z130
z131
z132
z133
z134
z135
z136
z137
z138
z139
z140
z141
z142
z143
z144
z145
z146
z147
z148
z149
z150
z151
z152
z153
z154
z155
z156
z157
z158
z159
z160
z161
z162
z163
z164
z165
z166
z167
z168
z169
z170
z171
z172
z173
z174
z175
z176
z177
z178
z179
z180
z181
z182
z183
z184
z185
z186
z187
z188
z189
z190
z191
z192
z193
z194
z195
z196
z197
z198
z199
z200
z201
z202
z203
z204
z205
z206
z207
z208
z209
z210
z211
z212
z213
z214
z215
z216
z217
z218
z219
z220


end